c File: data_files/evolved_graphs/g0116.col
c
c Auto generated graph
c
p edge 100 3305
e 1 3
e 1 4
e 1 6
e 1 7
e 1 8
e 1 9
e 1 10
e 1 11
e 1 12
e 1 13
e 1 14
e 1 15
e 1 18
e 1 20
e 1 23
e 1 24
e 1 27
e 1 28
e 1 29
e 1 30
e 1 31
e 1 32
e 1 33
e 1 34
e 1 35
e 1 36
e 1 37
e 1 38
e 1 39
e 1 40
e 1 42
e 1 43
e 1 46
e 1 47
e 1 48
e 1 49
e 1 50
e 1 51
e 1 52
e 1 53
e 1 54
e 1 55
e 1 56
e 1 57
e 1 58
e 1 59
e 1 60
e 1 61
e 1 63
e 1 64
e 1 65
e 1 66
e 1 73
e 1 75
e 1 76
e 1 77
e 1 78
e 1 80
e 1 82
e 1 83
e 1 84
e 1 85
e 1 86
e 1 88
e 1 90
e 1 91
e 1 92
e 1 93
e 1 94
e 1 95
e 1 96
e 1 99
e 1 100
e 2 3
e 2 4
e 2 5
e 2 6
e 2 7
e 2 8
e 2 9
e 2 10
e 2 11
e 2 12
e 2 16
e 2 17
e 2 18
e 2 19
e 2 20
e 2 21
e 2 24
e 2 25
e 2 26
e 2 27
e 2 28
e 2 29
e 2 30
e 2 31
e 2 32
e 2 33
e 2 34
e 2 35
e 2 36
e 2 37
e 2 39
e 2 40
e 2 41
e 2 42
e 2 43
e 2 44
e 2 45
e 2 46
e 2 47
e 2 48
e 2 49
e 2 50
e 2 51
e 2 52
e 2 54
e 2 55
e 2 57
e 2 58
e 2 59
e 2 60
e 2 61
e 2 63
e 2 64
e 2 65
e 2 66
e 2 74
e 2 75
e 2 76
e 2 77
e 2 78
e 2 79
e 2 80
e 2 81
e 2 83
e 2 84
e 2 86
e 2 89
e 2 91
e 2 92
e 2 93
e 2 94
e 2 95
e 2 96
e 2 99
e 2 100
e 3 4
e 3 6
e 3 7
e 3 9
e 3 10
e 3 11
e 3 12
e 3 13
e 3 15
e 3 16
e 3 18
e 3 20
e 3 21
e 3 23
e 3 25
e 3 26
e 3 27
e 3 28
e 3 29
e 3 30
e 3 31
e 3 32
e 3 33
e 3 34
e 3 35
e 3 37
e 3 38
e 3 39
e 3 40
e 3 41
e 3 43
e 3 44
e 3 45
e 3 46
e 3 47
e 3 48
e 3 49
e 3 50
e 3 51
e 3 52
e 3 53
e 3 54
e 3 55
e 3 57
e 3 59
e 3 61
e 3 63
e 3 64
e 3 65
e 3 66
e 3 67
e 3 68
e 3 69
e 3 70
e 3 71
e 3 72
e 3 73
e 3 74
e 3 75
e 3 76
e 3 77
e 3 78
e 3 80
e 3 86
e 3 87
e 3 88
e 3 90
e 3 91
e 3 92
e 3 93
e 3 94
e 3 95
e 3 96
e 3 97
e 3 99
e 3 100
e 4 5
e 4 6
e 4 7
e 4 8
e 4 9
e 4 11
e 4 12
e 4 14
e 4 15
e 4 18
e 4 20
e 4 21
e 4 22
e 4 24
e 4 25
e 4 26
e 4 27
e 4 28
e 4 29
e 4 30
e 4 31
e 4 32
e 4 33
e 4 34
e 4 35
e 4 36
e 4 37
e 4 38
e 4 42
e 4 43
e 4 44
e 4 45
e 4 46
e 4 48
e 4 49
e 4 50
e 4 51
e 4 52
e 4 54
e 4 57
e 4 59
e 4 60
e 4 61
e 4 63
e 4 64
e 4 67
e 4 68
e 4 69
e 4 70
e 4 71
e 4 72
e 4 73
e 4 74
e 4 75
e 4 76
e 4 77
e 4 78
e 4 80
e 4 82
e 4 83
e 4 84
e 4 85
e 4 86
e 4 87
e 4 88
e 4 91
e 4 92
e 4 93
e 4 94
e 4 95
e 4 96
e 4 99
e 4 100
e 5 9
e 5 16
e 5 17
e 5 18
e 5 19
e 5 20
e 5 21
e 5 22
e 5 23
e 5 24
e 5 25
e 5 26
e 5 28
e 5 29
e 5 30
e 5 31
e 5 32
e 5 33
e 5 34
e 5 35
e 5 36
e 5 37
e 5 39
e 5 40
e 5 46
e 5 47
e 5 48
e 5 49
e 5 50
e 5 51
e 5 52
e 5 53
e 5 54
e 5 55
e 5 56
e 5 57
e 5 58
e 5 59
e 5 60
e 5 61
e 5 62
e 5 63
e 5 64
e 5 65
e 5 67
e 5 68
e 5 69
e 5 70
e 5 71
e 5 72
e 5 73
e 5 74
e 5 75
e 5 76
e 5 77
e 5 78
e 5 79
e 5 80
e 5 82
e 5 84
e 5 85
e 5 86
e 5 91
e 5 92
e 5 93
e 5 94
e 5 95
e 5 96
e 5 97
e 5 98
e 5 99
e 5 100
e 6 8
e 6 10
e 6 14
e 6 16
e 6 18
e 6 19
e 6 20
e 6 21
e 6 24
e 6 25
e 6 26
e 6 27
e 6 28
e 6 29
e 6 30
e 6 31
e 6 32
e 6 33
e 6 34
e 6 35
e 6 36
e 6 37
e 6 38
e 6 39
e 6 40
e 6 41
e 6 46
e 6 47
e 6 48
e 6 49
e 6 50
e 6 51
e 6 52
e 6 53
e 6 54
e 6 55
e 6 56
e 6 57
e 6 58
e 6 59
e 6 60
e 6 61
e 6 62
e 6 63
e 6 67
e 6 68
e 6 70
e 6 71
e 6 72
e 6 73
e 6 74
e 6 75
e 6 76
e 6 77
e 6 78
e 6 79
e 6 80
e 6 81
e 6 82
e 6 83
e 6 84
e 6 85
e 6 86
e 6 87
e 6 88
e 6 89
e 6 90
e 6 91
e 6 92
e 6 93
e 6 94
e 6 95
e 6 99
e 6 100
e 7 14
e 7 15
e 7 16
e 7 17
e 7 18
e 7 19
e 7 20
e 7 21
e 7 22
e 7 23
e 7 25
e 7 26
e 7 27
e 7 28
e 7 29
e 7 30
e 7 31
e 7 32
e 7 33
e 7 34
e 7 35
e 7 36
e 7 37
e 7 38
e 7 39
e 7 40
e 7 41
e 7 42
e 7 43
e 7 44
e 7 45
e 7 46
e 7 47
e 7 48
e 7 49
e 7 50
e 7 51
e 7 52
e 7 53
e 7 54
e 7 55
e 7 56
e 7 57
e 7 58
e 7 59
e 7 60
e 7 61
e 7 62
e 7 63
e 7 67
e 7 68
e 7 69
e 7 70
e 7 71
e 7 72
e 7 73
e 7 74
e 7 75
e 7 76
e 7 77
e 7 78
e 7 79
e 7 80
e 7 81
e 7 82
e 7 83
e 7 84
e 7 85
e 7 86
e 7 87
e 7 88
e 7 89
e 7 90
e 7 91
e 7 92
e 7 93
e 7 94
e 7 95
e 7 96
e 7 97
e 7 99
e 8 14
e 8 15
e 8 16
e 8 17
e 8 18
e 8 19
e 8 20
e 8 21
e 8 22
e 8 23
e 8 25
e 8 26
e 8 27
e 8 28
e 8 29
e 8 30
e 8 31
e 8 32
e 8 33
e 8 34
e 8 35
e 8 36
e 8 37
e 8 38
e 8 39
e 8 40
e 8 41
e 8 42
e 8 43
e 8 44
e 8 45
e 8 46
e 8 47
e 8 48
e 8 50
e 8 51
e 8 53
e 8 54
e 8 55
e 8 56
e 8 57
e 8 58
e 8 59
e 8 60
e 8 61
e 8 62
e 8 63
e 8 64
e 8 67
e 8 68
e 8 69
e 8 70
e 8 71
e 8 72
e 8 73
e 8 74
e 8 75
e 8 76
e 8 77
e 8 78
e 8 79
e 8 80
e 8 81
e 8 82
e 8 83
e 8 84
e 8 85
e 8 86
e 8 87
e 8 88
e 8 89
e 8 90
e 8 91
e 8 92
e 8 93
e 8 94
e 8 95
e 8 96
e 8 97
e 8 98
e 8 99
e 8 100
e 9 12
e 9 14
e 9 15
e 9 16
e 9 17
e 9 18
e 9 19
e 9 20
e 9 21
e 9 22
e 9 23
e 9 24
e 9 25
e 9 26
e 9 27
e 9 28
e 9 29
e 9 30
e 9 31
e 9 32
e 9 33
e 9 34
e 9 35
e 9 36
e 9 37
e 9 38
e 9 39
e 9 40
e 9 41
e 9 42
e 9 43
e 9 44
e 9 45
e 9 46
e 9 47
e 9 48
e 9 50
e 9 51
e 9 53
e 9 54
e 9 55
e 9 56
e 9 57
e 9 58
e 9 59
e 9 60
e 9 61
e 9 62
e 9 67
e 9 68
e 9 69
e 9 70
e 9 71
e 9 72
e 9 73
e 9 74
e 9 75
e 9 76
e 9 77
e 9 78
e 9 79
e 9 80
e 9 81
e 9 82
e 9 83
e 9 84
e 9 85
e 9 86
e 9 87
e 9 88
e 9 89
e 9 90
e 9 91
e 9 92
e 9 93
e 9 94
e 9 97
e 9 98
e 9 99
e 9 100
e 10 14
e 10 15
e 10 16
e 10 17
e 10 18
e 10 19
e 10 20
e 10 21
e 10 23
e 10 24
e 10 26
e 10 27
e 10 28
e 10 29
e 10 30
e 10 31
e 10 32
e 10 33
e 10 34
e 10 35
e 10 36
e 10 37
e 10 38
e 10 40
e 10 41
e 10 42
e 10 43
e 10 44
e 10 45
e 10 48
e 10 52
e 10 53
e 10 54
e 10 55
e 10 56
e 10 57
e 10 58
e 10 59
e 10 60
e 10 61
e 10 62
e 10 63
e 10 64
e 10 67
e 10 68
e 10 69
e 10 70
e 10 71
e 10 72
e 10 73
e 10 74
e 10 75
e 10 76
e 10 77
e 10 78
e 10 79
e 10 80
e 10 81
e 10 82
e 10 83
e 10 84
e 10 85
e 10 86
e 10 87
e 10 88
e 10 89
e 10 90
e 10 91
e 10 92
e 10 93
e 10 94
e 10 95
e 10 97
e 10 98
e 10 99
e 10 100
e 11 13
e 11 14
e 11 15
e 11 16
e 11 17
e 11 18
e 11 19
e 11 20
e 11 21
e 11 22
e 11 23
e 11 25
e 11 26
e 11 27
e 11 28
e 11 29
e 11 30
e 11 31
e 11 32
e 11 33
e 11 34
e 11 35
e 11 36
e 11 37
e 11 38
e 11 39
e 11 40
e 11 41
e 11 42
e 11 43
e 11 44
e 11 45
e 11 46
e 11 53
e 11 54
e 11 55
e 11 56
e 11 57
e 11 58
e 11 59
e 11 60
e 11 61
e 11 62
e 11 63
e 11 66
e 11 67
e 11 68
e 11 69
e 11 70
e 11 71
e 11 72
e 11 73
e 11 74
e 11 75
e 11 76
e 11 77
e 11 78
e 11 79
e 11 80
e 11 81
e 11 82
e 11 83
e 11 84
e 11 85
e 11 86
e 11 87
e 11 88
e 11 89
e 11 90
e 11 91
e 11 92
e 11 93
e 11 94
e 11 96
e 11 97
e 11 98
e 11 99
e 11 100
e 12 14
e 12 15
e 12 16
e 12 17
e 12 18
e 12 19
e 12 20
e 12 21
e 12 22
e 12 24
e 12 25
e 12 26
e 12 28
e 12 29
e 12 30
e 12 32
e 12 34
e 12 35
e 12 36
e 12 37
e 12 38
e 12 39
e 12 41
e 12 42
e 12 43
e 12 44
e 12 45
e 12 46
e 12 53
e 12 54
e 12 55
e 12 56
e 12 57
e 12 58
e 12 59
e 12 60
e 12 61
e 12 62
e 12 63
e 12 64
e 12 66
e 12 67
e 12 68
e 12 69
e 12 70
e 12 71
e 12 72
e 12 73
e 12 74
e 12 75
e 12 76
e 12 77
e 12 78
e 12 79
e 12 80
e 12 81
e 12 82
e 12 83
e 12 84
e 12 85
e 12 86
e 12 87
e 12 88
e 12 89
e 12 90
e 12 91
e 12 92
e 12 93
e 12 94
e 12 95
e 12 96
e 12 97
e 12 98
e 12 100
e 13 15
e 13 16
e 13 17
e 13 18
e 13 19
e 13 20
e 13 21
e 13 22
e 13 23
e 13 24
e 13 25
e 13 27
e 13 28
e 13 29
e 13 30
e 13 31
e 13 32
e 13 33
e 13 34
e 13 35
e 13 36
e 13 37
e 13 38
e 13 39
e 13 40
e 13 41
e 13 42
e 13 43
e 13 44
e 13 45
e 13 53
e 13 54
e 13 55
e 13 56
e 13 57
e 13 58
e 13 59
e 13 60
e 13 61
e 13 62
e 13 65
e 13 67
e 13 68
e 13 69
e 13 70
e 13 71
e 13 72
e 13 73
e 13 74
e 13 75
e 13 76
e 13 77
e 13 78
e 13 79
e 13 80
e 13 81
e 13 82
e 13 83
e 13 84
e 13 85
e 13 86
e 13 87
e 13 88
e 13 89
e 13 90
e 13 91
e 13 92
e 13 93
e 13 94
e 13 95
e 13 96
e 13 97
e 13 98
e 13 99
e 13 100
e 14 15
e 14 17
e 14 18
e 14 19
e 14 20
e 14 21
e 14 22
e 14 23
e 14 24
e 14 25
e 14 26
e 14 27
e 14 29
e 14 30
e 14 31
e 14 32
e 14 33
e 14 34
e 14 35
e 14 36
e 14 37
e 14 38
e 14 39
e 14 40
e 14 41
e 14 42
e 14 43
e 14 44
e 14 45
e 14 46
e 14 53
e 14 54
e 14 55
e 14 56
e 14 57
e 14 58
e 14 59
e 14 60
e 14 61
e 14 62
e 14 63
e 14 64
e 14 65
e 14 66
e 14 67
e 14 68
e 14 69
e 14 70
e 14 72
e 14 73
e 14 74
e 14 75
e 14 76
e 14 77
e 14 78
e 14 79
e 14 80
e 14 81
e 14 82
e 14 83
e 14 84
e 14 85
e 14 86
e 14 87
e 14 89
e 14 90
e 14 92
e 14 94
e 14 95
e 14 97
e 14 98
e 14 99
e 14 100
e 15 19
e 15 20
e 15 21
e 15 22
e 15 23
e 15 24
e 15 25
e 15 26
e 15 28
e 15 30
e 15 32
e 15 33
e 15 34
e 15 36
e 15 37
e 15 38
e 15 39
e 15 40
e 15 41
e 15 42
e 15 43
e 15 44
e 15 45
e 15 46
e 15 63
e 15 65
e 15 66
e 15 67
e 15 68
e 15 69
e 15 71
e 15 72
e 15 73
e 15 74
e 15 76
e 15 77
e 15 78
e 15 79
e 15 80
e 15 81
e 15 83
e 15 84
e 15 85
e 15 86
e 15 87
e 15 88
e 15 89
e 15 90
e 15 91
e 15 92
e 15 93
e 15 94
e 15 95
e 15 98
e 15 99
e 15 100
e 16 19
e 16 20
e 16 21
e 16 22
e 16 23
e 16 24
e 16 25
e 16 26
e 16 27
e 16 29
e 16 30
e 16 31
e 16 32
e 16 34
e 16 35
e 16 36
e 16 37
e 16 38
e 16 39
e 16 40
e 16 42
e 16 43
e 16 44
e 16 45
e 16 46
e 16 59
e 16 63
e 16 64
e 16 65
e 16 66
e 16 67
e 16 68
e 16 69
e 16 70
e 16 72
e 16 73
e 16 74
e 16 75
e 16 77
e 16 78
e 16 79
e 16 80
e 16 81
e 16 82
e 16 83
e 16 84
e 16 85
e 16 86
e 16 87
e 16 88
e 16 89
e 16 90
e 16 91
e 16 92
e 16 93
e 16 94
e 16 95
e 16 96
e 16 99
e 16 100
e 17 18
e 17 19
e 17 22
e 17 23
e 17 25
e 17 26
e 17 27
e 17 29
e 17 30
e 17 31
e 17 32
e 17 33
e 17 35
e 17 36
e 17 37
e 17 38
e 17 39
e 17 40
e 17 41
e 17 42
e 17 43
e 17 44
e 17 45
e 17 46
e 17 63
e 17 64
e 17 65
e 17 67
e 17 68
e 17 69
e 17 70
e 17 71
e 17 72
e 17 74
e 17 75
e 17 76
e 17 77
e 17 78
e 17 79
e 17 80
e 17 81
e 17 82
e 17 84
e 17 85
e 17 86
e 17 87
e 17 88
e 17 89
e 17 90
e 17 91
e 17 92
e 17 93
e 17 95
e 17 96
e 17 97
e 17 98
e 17 100
e 18 19
e 18 20
e 18 21
e 18 22
e 18 24
e 18 25
e 18 26
e 18 28
e 18 29
e 18 31
e 18 32
e 18 33
e 18 34
e 18 35
e 18 36
e 18 37
e 18 38
e 18 39
e 18 40
e 18 41
e 18 42
e 18 43
e 18 44
e 18 45
e 18 46
e 18 63
e 18 64
e 18 65
e 18 66
e 18 67
e 18 68
e 18 69
e 18 70
e 18 71
e 18 72
e 18 73
e 18 74
e 18 75
e 18 76
e 18 77
e 18 78
e 18 79
e 18 81
e 18 82
e 18 83
e 18 84
e 18 85
e 18 86
e 18 87
e 18 88
e 18 90
e 18 91
e 18 92
e 18 93
e 18 94
e 18 95
e 18 97
e 18 100
e 19 21
e 19 24
e 19 41
e 19 43
e 19 44
e 19 45
e 19 46
e 19 63
e 19 64
e 19 65
e 19 66
e 19 67
e 19 68
e 19 69
e 19 71
e 19 72
e 19 73
e 19 74
e 19 75
e 19 76
e 19 77
e 19 78
e 19 79
e 19 80
e 19 81
e 19 82
e 19 83
e 19 84
e 19 85
e 19 86
e 19 87
e 19 88
e 19 89
e 19 90
e 19 91
e 19 93
e 19 94
e 19 95
e 19 98
e 19 99
e 20 21
e 20 41
e 20 42
e 20 44
e 20 45
e 20 46
e 20 53
e 20 55
e 20 56
e 20 58
e 20 59
e 20 60
e 20 62
e 20 63
e 20 64
e 20 65
e 20 66
e 20 69
e 20 70
e 20 71
e 20 73
e 20 74
e 20 75
e 20 76
e 20 77
e 20 78
e 20 79
e 20 80
e 20 81
e 20 82
e 20 83
e 20 84
e 20 85
e 20 87
e 20 89
e 20 90
e 20 91
e 20 92
e 20 93
e 20 94
e 20 96
e 20 99
e 21 29
e 21 41
e 21 42
e 21 43
e 21 44
e 21 46
e 21 53
e 21 54
e 21 56
e 21 58
e 21 59
e 21 61
e 21 67
e 21 68
e 21 69
e 21 70
e 21 71
e 21 72
e 21 73
e 21 74
e 21 75
e 21 76
e 21 77
e 21 78
e 21 79
e 21 80
e 21 81
e 21 83
e 21 84
e 21 85
e 21 86
e 21 87
e 21 88
e 21 89
e 21 90
e 21 91
e 21 92
e 21 93
e 21 94
e 21 95
e 21 96
e 21 97
e 21 99
e 22 42
e 22 43
e 22 44
e 22 45
e 22 46
e 22 53
e 22 54
e 22 55
e 22 56
e 22 57
e 22 58
e 22 59
e 22 60
e 22 61
e 22 62
e 22 67
e 22 68
e 22 69
e 22 70
e 22 71
e 22 73
e 22 74
e 22 75
e 22 76
e 22 77
e 22 79
e 22 80
e 22 81
e 22 82
e 22 83
e 22 84
e 22 85
e 22 88
e 22 89
e 22 90
e 22 91
e 22 92
e 22 93
e 22 94
e 22 99
e 23 24
e 23 29
e 23 30
e 23 41
e 23 42
e 23 43
e 23 44
e 23 45
e 23 53
e 23 54
e 23 55
e 23 56
e 23 57
e 23 59
e 23 60
e 23 61
e 23 62
e 23 67
e 23 69
e 23 70
e 23 71
e 23 72
e 23 75
e 23 76
e 23 77
e 23 78
e 23 79
e 23 80
e 23 81
e 23 82
e 23 83
e 23 84
e 23 85
e 23 86
e 23 87
e 23 88
e 23 89
e 23 90
e 23 91
e 23 92
e 23 93
e 23 94
e 23 95
e 23 97
e 23 99
e 24 41
e 24 42
e 24 43
e 24 54
e 24 55
e 24 56
e 24 57
e 24 59
e 24 60
e 24 61
e 24 67
e 24 68
e 24 69
e 24 70
e 24 71
e 24 72
e 24 73
e 24 75
e 24 76
e 24 77
e 24 79
e 24 80
e 24 81
e 24 82
e 24 83
e 24 84
e 24 86
e 24 87
e 24 88
e 24 89
e 24 90
e 24 91
e 24 93
e 24 94
e 24 95
e 24 99
e 25 26
e 25 41
e 25 43
e 25 45
e 25 53
e 25 54
e 25 55
e 25 56
e 25 57
e 25 58
e 25 59
e 25 61
e 25 62
e 25 67
e 25 68
e 25 69
e 25 70
e 25 71
e 25 72
e 25 73
e 25 77
e 25 78
e 25 79
e 25 80
e 25 81
e 25 82
e 25 83
e 25 84
e 25 85
e 25 86
e 25 87
e 25 88
e 25 89
e 25 90
e 25 91
e 25 92
e 25 93
e 25 94
e 25 95
e 25 96
e 25 98
e 26 28
e 26 31
e 26 34
e 26 42
e 26 43
e 26 44
e 26 45
e 26 53
e 26 54
e 26 55
e 26 56
e 26 57
e 26 60
e 26 62
e 26 67
e 26 68
e 26 69
e 26 70
e 26 71
e 26 72
e 26 73
e 26 75
e 26 76
e 26 77
e 26 78
e 26 79
e 26 80
e 26 81
e 26 84
e 26 85
e 26 86
e 26 87
e 26 88
e 26 89
e 26 90
e 26 92
e 26 93
e 26 94
e 26 95
e 26 97
e 26 98
e 26 99
e 27 30
e 27 32
e 27 33
e 27 34
e 27 41
e 27 42
e 27 43
e 27 44
e 27 45
e 27 53
e 27 54
e 27 55
e 27 57
e 27 59
e 27 60
e 27 61
e 27 62
e 27 67
e 27 69
e 27 70
e 27 71
e 27 72
e 27 73
e 27 74
e 27 75
e 27 76
e 27 77
e 27 78
e 27 79
e 27 80
e 27 81
e 27 82
e 27 83
e 27 84
e 27 85
e 27 86
e 27 87
e 27 88
e 27 89
e 27 91
e 27 92
e 27 93
e 27 94
e 27 95
e 27 96
e 27 97
e 27 99
e 28 31
e 28 33
e 28 41
e 28 42
e 28 43
e 28 53
e 28 56
e 28 57
e 28 59
e 28 60
e 28 68
e 28 69
e 28 70
e 28 71
e 28 73
e 28 74
e 28 75
e 28 76
e 28 77
e 28 78
e 28 79
e 28 80
e 28 81
e 28 82
e 28 83
e 28 84
e 28 85
e 28 86
e 28 87
e 28 90
e 28 91
e 28 92
e 28 93
e 28 94
e 28 96
e 28 97
e 28 98
e 28 99
e 28 100
e 29 31
e 29 32
e 29 35
e 29 53
e 29 55
e 29 56
e 29 57
e 29 58
e 29 59
e 29 60
e 29 65
e 29 66
e 29 67
e 29 68
e 29 69
e 29 70
e 29 71
e 29 72
e 29 73
e 29 74
e 29 75
e 29 76
e 29 77
e 29 78
e 29 79
e 29 80
e 29 81
e 29 82
e 29 83
e 29 84
e 29 85
e 29 86
e 29 87
e 29 88
e 29 89
e 29 90
e 29 91
e 29 92
e 29 93
e 29 94
e 29 95
e 29 96
e 29 97
e 29 98
e 29 99
e 29 100
e 30 34
e 30 38
e 30 39
e 30 44
e 30 56
e 30 57
e 30 58
e 30 59
e 30 62
e 30 63
e 30 67
e 30 68
e 30 69
e 30 70
e 30 71
e 30 72
e 30 73
e 30 74
e 30 75
e 30 76
e 30 78
e 30 80
e 30 81
e 30 82
e 30 83
e 30 84
e 30 85
e 30 86
e 30 88
e 30 90
e 30 91
e 30 92
e 30 93
e 30 94
e 30 95
e 30 96
e 30 97
e 30 98
e 30 99
e 31 42
e 31 57
e 31 58
e 31 59
e 31 62
e 31 64
e 31 65
e 31 66
e 31 67
e 31 69
e 31 71
e 31 72
e 31 74
e 31 75
e 31 76
e 31 77
e 31 78
e 31 79
e 31 80
e 31 81
e 31 82
e 31 83
e 31 84
e 31 85
e 31 86
e 31 88
e 31 89
e 31 91
e 31 92
e 31 93
e 31 94
e 31 95
e 31 96
e 31 97
e 31 98
e 31 99
e 31 100
e 32 33
e 32 38
e 32 41
e 32 42
e 32 45
e 32 46
e 32 47
e 32 48
e 32 49
e 32 50
e 32 52
e 32 55
e 32 57
e 32 58
e 32 59
e 32 65
e 32 66
e 32 67
e 32 68
e 32 69
e 32 70
e 32 71
e 32 72
e 32 73
e 32 74
e 32 75
e 32 76
e 32 78
e 32 79
e 32 81
e 32 82
e 32 83
e 32 84
e 32 85
e 32 86
e 32 87
e 32 88
e 32 89
e 32 90
e 32 92
e 32 93
e 32 94
e 32 95
e 32 96
e 32 97
e 32 98
e 32 99
e 32 100
e 33 35
e 33 41
e 33 46
e 33 47
e 33 48
e 33 49
e 33 51
e 33 52
e 33 57
e 33 59
e 33 60
e 33 65
e 33 66
e 33 67
e 33 69
e 33 70
e 33 71
e 33 72
e 33 73
e 33 74
e 33 75
e 33 76
e 33 77
e 33 78
e 33 79
e 33 80
e 33 81
e 33 83
e 33 86
e 33 97
e 33 98
e 33 99
e 33 100
e 34 46
e 34 48
e 34 49
e 34 50
e 34 57
e 34 58
e 34 59
e 34 60
e 34 65
e 34 66
e 34 67
e 34 68
e 34 69
e 34 70
e 34 71
e 34 72
e 34 73
e 34 74
e 34 75
e 34 76
e 34 77
e 34 78
e 34 80
e 34 81
e 34 86
e 34 87
e 34 88
e 34 89
e 34 96
e 34 98
e 34 99
e 34 100
e 35 43
e 35 45
e 35 46
e 35 47
e 35 48
e 35 49
e 35 50
e 35 51
e 35 57
e 35 58
e 35 59
e 35 60
e 35 65
e 35 66
e 35 69
e 35 70
e 35 71
e 35 72
e 35 73
e 35 74
e 35 75
e 35 76
e 35 77
e 35 78
e 35 79
e 35 80
e 35 87
e 35 88
e 35 96
e 35 100
e 36 38
e 36 39
e 36 42
e 36 44
e 36 47
e 36 48
e 36 49
e 36 50
e 36 51
e 36 57
e 36 58
e 36 59
e 36 60
e 36 61
e 36 62
e 36 63
e 36 64
e 36 65
e 36 66
e 36 68
e 36 69
e 36 70
e 36 72
e 36 73
e 36 74
e 36 75
e 36 76
e 36 77
e 36 78
e 36 79
e 36 80
e 36 81
e 36 83
e 36 86
e 36 88
e 36 93
e 36 96
e 36 98
e 36 99
e 36 100
e 37 39
e 37 42
e 37 43
e 37 46
e 37 47
e 37 48
e 37 49
e 37 50
e 37 51
e 37 57
e 37 58
e 37 59
e 37 60
e 37 61
e 37 62
e 37 63
e 37 64
e 37 65
e 37 66
e 37 69
e 37 70
e 37 72
e 37 73
e 37 74
e 37 76
e 37 77
e 37 78
e 37 79
e 37 80
e 37 81
e 37 83
e 37 84
e 37 86
e 37 88
e 37 89
e 37 96
e 37 97
e 37 99
e 37 100
e 38 40
e 38 41
e 38 43
e 38 44
e 38 46
e 38 47
e 38 50
e 38 51
e 38 57
e 38 58
e 38 59
e 38 60
e 38 61
e 38 62
e 38 63
e 38 64
e 38 65
e 38 66
e 38 67
e 38 68
e 38 69
e 38 71
e 38 72
e 38 73
e 38 74
e 38 75
e 38 76
e 38 77
e 38 78
e 38 80
e 38 81
e 38 82
e 38 84
e 38 86
e 38 91
e 38 96
e 38 97
e 38 100
e 39 40
e 39 44
e 39 46
e 39 47
e 39 48
e 39 49
e 39 50
e 39 51
e 39 52
e 39 57
e 39 58
e 39 59
e 39 60
e 39 61
e 39 62
e 39 63
e 39 64
e 39 65
e 39 66
e 39 67
e 39 69
e 39 70
e 39 71
e 39 72
e 39 74
e 39 75
e 39 77
e 39 78
e 39 79
e 39 81
e 39 83
e 39 89
e 39 96
e 39 98
e 39 100
e 40 46
e 40 47
e 40 48
e 40 49
e 40 50
e 40 51
e 40 52
e 40 53
e 40 56
e 40 57
e 40 58
e 40 59
e 40 60
e 40 62
e 40 63
e 40 64
e 40 65
e 40 66
e 40 67
e 40 69
e 40 70
e 40 71
e 40 72
e 40 73
e 40 74
e 40 75
e 40 76
e 40 77
e 40 78
e 40 80
e 40 81
e 40 82
e 40 84
e 40 85
e 40 87
e 40 93
e 40 96
e 40 97
e 40 98
e 40 100
e 41 46
e 41 47
e 41 48
e 41 49
e 41 50
e 41 54
e 41 56
e 41 57
e 41 58
e 41 60
e 41 61
e 41 62
e 41 64
e 41 65
e 41 67
e 41 70
e 41 71
e 41 72
e 41 73
e 41 74
e 41 75
e 41 76
e 41 77
e 41 78
e 41 80
e 41 82
e 41 84
e 41 86
e 41 87
e 41 88
e 41 97
e 42 46
e 42 47
e 42 48
e 42 49
e 42 50
e 42 51
e 42 52
e 42 56
e 42 57
e 42 58
e 42 59
e 42 60
e 42 61
e 42 62
e 42 64
e 42 65
e 42 67
e 42 68
e 42 69
e 42 70
e 42 71
e 42 72
e 42 73
e 42 74
e 42 75
e 42 76
e 42 77
e 42 78
e 42 79
e 42 80
e 42 81
e 42 82
e 42 83
e 42 87
e 42 89
e 42 96
e 42 98
e 42 100
e 43 46
e 43 47
e 43 48
e 43 50
e 43 51
e 43 52
e 43 58
e 43 59
e 43 61
e 43 62
e 43 63
e 43 64
e 43 65
e 43 66
e 43 67
e 43 68
e 43 69
e 43 70
e 43 72
e 43 73
e 43 74
e 43 75
e 43 76
e 43 77
e 43 78
e 43 79
e 43 80
e 43 81
e 43 83
e 43 87
e 43 89
e 43 95
e 43 96
e 43 98
e 44 46
e 44 47
e 44 48
e 44 52
e 44 54
e 44 57
e 44 58
e 44 59
e 44 60
e 44 61
e 44 62
e 44 63
e 44 65
e 44 66
e 44 67
e 44 68
e 44 69
e 44 70
e 44 71
e 44 72
e 44 73
e 44 74
e 44 75
e 44 76
e 44 77
e 44 78
e 44 79
e 44 81
e 44 85
e 44 86
e 44 88
e 44 89
e 44 92
e 44 93
e 44 94
e 44 95
e 44 98
e 45 46
e 45 47
e 45 48
e 45 57
e 45 58
e 45 59
e 45 62
e 45 63
e 45 64
e 45 67
e 45 68
e 45 69
e 45 70
e 45 71
e 45 72
e 45 73
e 45 74
e 45 75
e 45 77
e 45 78
e 45 80
e 45 81
e 45 82
e 45 83
e 45 84
e 45 85
e 45 87
e 45 88
e 45 89
e 45 90
e 45 92
e 45 93
e 45 94
e 45 95
e 45 96
e 45 97
e 46 48
e 46 53
e 46 59
e 46 64
e 46 65
e 46 66
e 46 67
e 46 68
e 46 69
e 46 70
e 46 71
e 46 73
e 46 74
e 46 75
e 46 76
e 46 77
e 46 78
e 46 79
e 46 80
e 46 81
e 46 82
e 46 84
e 46 85
e 46 86
e 46 87
e 46 88
e 46 89
e 46 90
e 46 92
e 46 93
e 46 94
e 46 95
e 46 96
e 46 97
e 47 48
e 47 55
e 47 57
e 47 58
e 47 59
e 47 60
e 47 61
e 47 62
e 47 63
e 47 65
e 47 66
e 47 67
e 47 68
e 47 69
e 47 71
e 47 72
e 47 73
e 47 74
e 47 75
e 47 76
e 47 77
e 47 78
e 47 79
e 47 80
e 47 81
e 47 82
e 47 83
e 47 84
e 47 85
e 47 86
e 47 87
e 47 88
e 47 90
e 47 92
e 47 93
e 47 94
e 47 95
e 47 96
e 47 97
e 47 98
e 47 100
e 48 50
e 48 52
e 48 54
e 48 55
e 48 56
e 48 58
e 48 59
e 48 60
e 48 63
e 48 64
e 48 66
e 48 69
e 48 70
e 48 71
e 48 72
e 48 73
e 48 74
e 48 75
e 48 77
e 48 78
e 48 79
e 48 80
e 48 81
e 48 82
e 48 83
e 48 84
e 48 85
e 48 86
e 48 87
e 48 88
e 48 89
e 48 90
e 48 91
e 48 92
e 48 93
e 48 94
e 48 95
e 48 96
e 48 97
e 48 98
e 49 56
e 49 58
e 49 59
e 49 60
e 49 63
e 49 64
e 49 66
e 49 69
e 49 70
e 49 71
e 49 72
e 49 73
e 49 74
e 49 75
e 49 77
e 49 78
e 49 79
e 49 80
e 49 81
e 49 82
e 49 83
e 49 84
e 49 85
e 49 86
e 49 87
e 49 88
e 49 89
e 49 90
e 49 91
e 49 92
e 49 93
e 49 94
e 49 95
e 49 96
e 49 97
e 50 54
e 50 55
e 50 56
e 50 57
e 50 59
e 50 61
e 50 63
e 50 64
e 50 65
e 50 66
e 50 69
e 50 70
e 50 71
e 50 72
e 50 73
e 50 74
e 50 75
e 50 76
e 50 77
e 50 78
e 50 79
e 50 80
e 50 81
e 50 82
e 50 83
e 50 84
e 50 85
e 50 86
e 50 87
e 50 88
e 50 89
e 50 90
e 50 91
e 50 92
e 50 93
e 50 94
e 50 95
e 50 97
e 50 98
e 50 100
e 51 54
e 51 55
e 51 56
e 51 57
e 51 58
e 51 59
e 51 60
e 51 61
e 51 62
e 51 63
e 51 64
e 51 65
e 51 66
e 51 67
e 51 68
e 51 69
e 51 70
e 51 71
e 51 72
e 51 73
e 51 74
e 51 75
e 51 76
e 51 77
e 51 84
e 51 85
e 51 87
e 51 88
e 51 89
e 51 90
e 51 91
e 51 92
e 51 93
e 51 94
e 51 100
e 52 54
e 52 55
e 52 56
e 52 57
e 52 58
e 52 59
e 52 60
e 52 61
e 52 62
e 52 63
e 52 64
e 52 66
e 52 67
e 52 68
e 52 69
e 52 70
e 52 71
e 52 72
e 52 73
e 52 74
e 52 76
e 52 82
e 52 83
e 52 87
e 52 88
e 52 89
e 52 91
e 52 92
e 52 93
e 52 94
e 53 54
e 53 55
e 53 56
e 53 57
e 53 59
e 53 60
e 53 61
e 53 62
e 53 63
e 53 64
e 53 66
e 53 67
e 53 68
e 53 70
e 53 71
e 53 72
e 53 73
e 53 74
e 53 75
e 53 77
e 53 78
e 53 84
e 53 87
e 53 88
e 53 89
e 53 90
e 53 91
e 53 92
e 53 94
e 53 98
e 54 57
e 54 58
e 54 59
e 54 60
e 54 61
e 54 62
e 54 63
e 54 64
e 54 65
e 54 66
e 54 67
e 54 71
e 54 72
e 54 74
e 54 75
e 54 78
e 54 79
e 54 80
e 54 81
e 54 82
e 54 83
e 54 85
e 54 86
e 54 88
e 54 89
e 54 90
e 54 91
e 54 93
e 54 94
e 54 95
e 55 57
e 55 58
e 55 61
e 55 64
e 55 65
e 55 66
e 55 67
e 55 68
e 55 69
e 55 72
e 55 73
e 55 74
e 55 75
e 55 76
e 55 78
e 55 80
e 55 81
e 55 82
e 55 83
e 55 84
e 55 85
e 55 86
e 55 87
e 55 88
e 55 89
e 55 90
e 55 91
e 55 92
e 55 93
e 56 57
e 56 59
e 56 60
e 56 61
e 56 62
e 56 63
e 56 64
e 56 65
e 56 66
e 56 67
e 56 68
e 56 69
e 56 71
e 56 72
e 56 73
e 56 75
e 56 77
e 56 78
e 56 79
e 56 81
e 56 82
e 56 83
e 56 84
e 56 85
e 56 87
e 56 88
e 56 89
e 56 90
e 56 92
e 56 93
e 56 94
e 57 62
e 57 66
e 57 67
e 57 69
e 57 71
e 57 72
e 57 73
e 57 74
e 57 75
e 57 79
e 57 80
e 57 81
e 57 82
e 57 83
e 57 84
e 57 85
e 57 86
e 57 87
e 57 88
e 57 89
e 57 90
e 57 91
e 57 92
e 57 93
e 57 94
e 57 98
e 58 62
e 58 63
e 58 65
e 58 67
e 58 68
e 58 69
e 58 70
e 58 72
e 58 73
e 58 74
e 58 75
e 58 78
e 58 79
e 58 80
e 58 81
e 58 82
e 58 83
e 58 84
e 58 86
e 58 87
e 58 88
e 58 89
e 58 90
e 58 91
e 58 92
e 58 94
e 58 95
e 58 98
e 59 61
e 59 65
e 59 66
e 59 67
e 59 68
e 59 69
e 59 70
e 59 72
e 59 74
e 59 75
e 59 79
e 59 80
e 59 81
e 59 82
e 59 83
e 59 84
e 59 86
e 59 87
e 59 88
e 59 89
e 59 90
e 59 91
e 59 92
e 59 93
e 59 94
e 59 98
e 60 61
e 60 64
e 60 67
e 60 68
e 60 69
e 60 70
e 60 71
e 60 74
e 60 75
e 60 76
e 60 77
e 60 78
e 60 79
e 60 80
e 60 81
e 60 82
e 60 83
e 60 84
e 60 85
e 60 86
e 60 87
e 60 88
e 60 89
e 60 90
e 60 91
e 60 92
e 60 93
e 60 94
e 60 95
e 60 96
e 60 98
e 61 67
e 61 69
e 61 70
e 61 71
e 61 72
e 61 73
e 61 74
e 61 75
e 61 76
e 61 77
e 61 78
e 61 80
e 61 81
e 61 82
e 61 83
e 61 84
e 61 85
e 61 87
e 61 88
e 61 89
e 61 90
e 61 91
e 61 92
e 61 93
e 61 95
e 61 96
e 61 97
e 61 98
e 61 99
e 62 64
e 62 65
e 62 67
e 62 68
e 62 69
e 62 70
e 62 71
e 62 72
e 62 73
e 62 74
e 62 75
e 62 76
e 62 77
e 62 78
e 62 79
e 62 80
e 62 81
e 62 82
e 62 83
e 62 84
e 62 85
e 62 87
e 62 88
e 62 89
e 62 90
e 62 91
e 62 92
e 62 93
e 62 94
e 62 95
e 62 96
e 62 98
e 63 66
e 63 67
e 63 68
e 63 69
e 63 70
e 63 71
e 63 72
e 63 73
e 63 74
e 63 75
e 63 76
e 63 77
e 63 78
e 63 79
e 63 80
e 63 81
e 63 82
e 63 83
e 63 84
e 63 85
e 63 86
e 63 87
e 63 88
e 63 89
e 63 90
e 63 92
e 63 93
e 63 94
e 63 95
e 63 96
e 63 97
e 63 99
e 64 67
e 64 68
e 64 71
e 64 72
e 64 73
e 64 74
e 64 75
e 64 76
e 64 77
e 64 78
e 64 79
e 64 80
e 64 81
e 64 82
e 64 85
e 64 86
e 64 87
e 64 88
e 64 89
e 64 90
e 64 91
e 64 92
e 64 93
e 64 95
e 64 96
e 64 97
e 64 98
e 65 67
e 65 68
e 65 69
e 65 70
e 65 71
e 65 72
e 65 73
e 65 74
e 65 75
e 65 76
e 65 77
e 65 78
e 65 79
e 65 81
e 65 82
e 65 83
e 65 84
e 65 85
e 65 86
e 65 87
e 65 88
e 65 89
e 65 90
e 65 91
e 65 93
e 65 94
e 65 95
e 65 96
e 65 97
e 66 81
e 66 85
e 66 89
e 66 91
e 66 92
e 66 93
e 66 94
e 66 95
e 66 96
e 67 74
e 67 75
e 67 77
e 67 78
e 67 81
e 67 82
e 67 83
e 67 84
e 67 85
e 67 87
e 67 88
e 67 89
e 67 90
e 67 91
e 67 96
e 67 97
e 68 69
e 68 74
e 68 75
e 68 76
e 68 77
e 68 79
e 68 81
e 68 82
e 68 83
e 68 84
e 68 85
e 68 86
e 68 87
e 68 88
e 68 89
e 68 90
e 68 91
e 68 95
e 68 96
e 68 97
e 68 98
e 69 70
e 69 74
e 69 75
e 69 79
e 69 80
e 69 81
e 69 82
e 69 83
e 69 84
e 69 85
e 69 86
e 69 87
e 69 88
e 69 89
e 69 95
e 69 96
e 69 98
e 69 99
e 70 73
e 70 74
e 70 75
e 70 78
e 70 79
e 70 80
e 70 81
e 70 82
e 70 83
e 70 84
e 70 85
e 70 86
e 70 87
e 70 88
e 70 89
e 70 90
e 70 91
e 70 95
e 70 96
e 70 97
e 70 99
e 71 74
e 71 75
e 71 79
e 71 80
e 71 81
e 71 82
e 71 83
e 71 84
e 71 85
e 71 86
e 71 87
e 71 88
e 71 89
e 71 90
e 71 91
e 71 95
e 71 96
e 71 97
e 71 98
e 71 99
e 72 74
e 72 77
e 72 78
e 72 79
e 72 80
e 72 82
e 72 83
e 72 85
e 72 86
e 72 87
e 72 89
e 72 90
e 72 91
e 72 95
e 72 96
e 72 97
e 72 98
e 72 99
e 73 74
e 73 75
e 73 77
e 73 78
e 73 79
e 73 81
e 73 82
e 73 83
e 73 84
e 73 85
e 73 86
e 73 87
e 73 88
e 73 89
e 73 90
e 73 91
e 73 95
e 73 96
e 73 97
e 73 99
e 74 78
e 74 79
e 74 81
e 74 82
e 74 83
e 74 84
e 74 85
e 74 86
e 74 87
e 74 88
e 74 89
e 74 90
e 74 91
e 74 95
e 74 96
e 74 97
e 74 98
e 74 99
e 75 78
e 75 79
e 75 80
e 75 81
e 75 82
e 75 83
e 75 84
e 75 85
e 75 86
e 75 87
e 75 88
e 75 89
e 75 90
e 75 91
e 75 95
e 75 96
e 75 97
e 75 98
e 75 99
e 76 78
e 76 79
e 76 80
e 76 81
e 76 82
e 76 83
e 76 84
e 76 85
e 76 86
e 76 87
e 76 88
e 76 91
e 76 95
e 76 97
e 76 98
e 76 99
e 76 100
e 77 80
e 77 81
e 77 82
e 77 84
e 77 85
e 77 86
e 77 87
e 77 88
e 77 89
e 77 90
e 77 91
e 77 95
e 77 96
e 77 97
e 77 98
e 78 79
e 78 84
e 78 85
e 78 86
e 78 87
e 78 88
e 78 89
e 78 90
e 78 91
e 78 97
e 78 98
e 78 100
e 79 82
e 79 83
e 79 84
e 79 85
e 79 86
e 79 87
e 79 88
e 79 89
e 79 90
e 79 91
e 79 95
e 79 96
e 79 99
e 79 100
e 80 81
e 80 82
e 80 84
e 80 86
e 80 87
e 80 88
e 80 90
e 80 95
e 80 97
e 80 98
e 80 99
e 80 100
e 81 84
e 81 85
e 81 86
e 81 87
e 81 88
e 81 89
e 81 90
e 81 91
e 81 95
e 81 96
e 81 97
e 81 98
e 81 99
e 81 100
e 82 83
e 82 84
e 82 85
e 82 87
e 82 89
e 82 90
e 82 91
e 82 97
e 82 98
e 82 99
e 82 100
e 83 86
e 83 87
e 83 88
e 83 90
e 83 91
e 83 94
e 83 99
e 83 100
e 84 87
e 84 88
e 84 89
e 84 90
e 84 91
e 84 98
e 84 100
e 85 87
e 85 88
e 85 89
e 85 90
e 85 91
e 85 95
e 85 99
e 85 100
e 86 87
e 86 89
e 86 91
e 86 97
e 86 98
e 86 100
e 87 96
e 87 97
e 87 100
e 88 95
e 88 100
e 89 98
e 90 96
e 90 100
e 91 98
e 91 99
e 91 100
e 92 100
e 93 94
e 93 96
e 93 100
e 94 96
e 94 100
e 95 98
e 95 100
e 96 99
e 96 100
e 97 100
e 98 99
e 98 100
e 99 100
